60

 0   1   1   2   5   2   1   1   1   2   3   3   3   2   2   2   2   3   4   5   5   5   6   6   7   4   3   4   5   6   6   8   4   6   6   9   6   6   6   5   6   7   8   9  10  10   7   6   6   8   8   8   8   9   9   9  10  10  10  11  
 1   0   0   1   4   3   2   2   2   1   2   2   4   3   3   3   3   2   3   4   4   4   5   5   6   5   4   3   4   5   5   7   5   5   5   8   7   7   7   6   5   6   7   8   9   9   8   7   7   7   7   7   7   8   8   8   9   9   9  10  
 1   0   0   1   4   3   2   2   2   1   2   2   4   3   3   3   3   2   3   4   4   4   5   5   6   5   4   3   4   5   5   7   5   5   5   8   7   7   7   6   5   6   7   8   9   9   8   7   7   7   7   7   7   8   8   8   9   9   9  10  
 2   1   1   0   3   4   3   3   3   2   1   1   5   4   4   4   4   3   2   3   3   3   4   4   5   6   5   4   3   4   4   6   6   4   4   7   8   8   8   7   6   5   6   7   8   8   9   8   8   6   6   6   6   7   7   7   8   8   8   9  
 5   4   4   3   0   7   6   6   6   5   4   4   8   7   7   7   7   6   5   4   4   4   3   3   2   9   8   7   6   5   5   3   9   7   7   4  11  11  11  10   9   8   7   6   5   5  12  11  11   9   9   9   9   8   8   8   7   7   7   6  
 2   3   3   4   7   0   1   1   1   2   3   3   1   2   2   2   2   3   4   5   5   5   6   6   7   2   3   4   5   6   6   8   4   6   6   9   4   4   4   5   6   7   8   9  10  10   5   6   6   8   8   8   8   9   9   9  10  10  10  11  
 1   2   2   3   6   1   0   0   0   1   2   2   2   1   1   1   1   2   3   4   4   4   5   5   6   3   2   3   4   5   5   7   3   5   5   8   5   5   5   4   5   6   7   8   9   9   6   5   5   7   7   7   7   8   8   8   9   9   9  10  
 1   2   2   3   6   1   0   0   0   1   2   2   2   1   1   1   1   2   3   4   4   4   5   5   6   3   2   3   4   5   5   7   3   5   5   8   5   5   5   4   5   6   7   8   9   9   6   5   5   7   7   7   7   8   8   8   9   9   9  10  
 1   2   2   3   6   1   0   0   0   1   2   2   2   1   1   1   1   2   3   4   4   4   5   5   6   3   2   3   4   5   5   7   3   5   5   8   5   5   5   4   5   6   7   8   9   9   6   5   5   7   7   7   7   8   8   8   9   9   9  10  
 2   1   1   2   5   2   1   1   1   0   1   1   3   2   2   2   2   1   2   3   3   3   4   4   5   4   3   2   3   4   4   6   4   4   4   7   6   6   6   5   4   5   6   7   8   8   7   6   6   6   6   6   6   7   7   7   8   8   8   9  
 3   2   2   1   4   3   2   2   2   1   0   0   4   3   3   3   3   2   1   2   2   2   3   3   4   5   4   3   2   3   3   5   5   3   3   6   7   7   7   6   5   4   5   6   7   7   8   7   7   5   5   5   5   6   6   6   7   7   7   8  
 3   2   2   1   4   3   2   2   2   1   0   0   4   3   3   3   3   2   1   2   2   2   3   3   4   5   4   3   2   3   3   5   5   3   3   6   7   7   7   6   5   4   5   6   7   7   8   7   7   5   5   5   5   6   6   6   7   7   7   8  
 3   4   4   5   8   1   2   2   2   3   4   4   0   1   1   1   1   2   3   4   4   4   5   5   6   1   2   3   4   5   5   7   3   5   5   8   3   3   3   4   5   6   7   8   9   9   4   5   5   7   7   7   7   8   8   8   9   9   9  10  
 2   3   3   4   7   2   1   1   1   2   3   3   1   0   0   0   0   1   2   3   3   3   4   4   5   2   1   2   3   4   4   6   2   4   4   7   4   4   4   3   4   5   6   7   8   8   5   4   4   6   6   6   6   7   7   7   8   8   8   9  
 2   3   3   4   7   2   1   1   1   2   3   3   1   0   0   0   0   1   2   3   3   3   4   4   5   2   1   2   3   4   4   6   2   4   4   7   4   4   4   3   4   5   6   7   8   8   5   4   4   6   6   6   6   7   7   7   8   8   8   9  
 2   3   3   4   7   2   1   1   1   2   3   3   1   0   0   0   0   1   2   3   3   3   4   4   5   2   1   2   3   4   4   6   2   4   4   7   4   4   4   3   4   5   6   7   8   8   5   4   4   6   6   6   6   7   7   7   8   8   8   9  
 2   3   3   4   7   2   1   1   1   2   3   3   1   0   0   0   0   1   2   3   3   3   4   4   5   2   1   2   3   4   4   6   2   4   4   7   4   4   4   3   4   5   6   7   8   8   5   4   4   6   6   6   6   7   7   7   8   8   8   9  
 3   2   2   3   6   3   2   2   2   1   2   2   2   1   1   1   1   0   1   2   2   2   3   3   4   3   2   1   2   3   3   5   3   3   3   6   5   5   5   4   3   4   5   6   7   7   6   5   5   5   5   5   5   6   6   6   7   7   7   8  
 4   3   3   2   5   4   3   3   3   2   1   1   3   2   2   2   2   1   0   1   1   1   2   2   3   4   3   2   1   2   2   4   4   2   2   5   6   6   6   5   4   3   4   5   6   6   7   6   6   4   4   4   4   5   5   5   6   6   6   7  
 5   4   4   3   4   5   4   4   4   3   2   2   4   3   3   3   3   2   1   0   0   0   1   1   2   5   4   3   2   1   1   3   5   3   3   4   7   7   7   6   5   4   3   4   5   5   8   7   7   5   5   5   5   4   4   4   5   5   5   6  
 5   4   4   3   4   5   4   4   4   3   2   2   4   3   3   3   3   2   1   0   0   0   1   1   2   5   4   3   2   1   1   3   5   3   3   4   7   7   7   6   5   4   3   4   5   5   8   7   7   5   5   5   5   4   4   4   5   5   5   6  
 5   4   4   3   4   5   4   4   4   3   2   2   4   3   3   3   3   2   1   0   0   0   1   1   2   5   4   3   2   1   1   3   5   3   3   4   7   7   7   6   5   4   3   4   5   5   8   7   7   5   5   5   5   4   4   4   5   5   5   6  
 6   5   5   4   3   6   5   5   5   4   3   3   5   4   4   4   4   3   2   1   1   1   0   0   1   6   5   4   3   2   2   2   6   4   4   3   8   8   8   7   6   5   4   3   4   4   9   8   8   6   6   6   6   5   5   5   4   4   4   5  
 6   5   5   4   3   6   5   5   5   4   3   3   5   4   4   4   4   3   2   1   1   1   0   0   1   6   5   4   3   2   2   2   6   4   4   3   8   8   8   7   6   5   4   3   4   4   9   8   8   6   6   6   6   5   5   5   4   4   4   5  
 7   6   6   5   2   7   6   6   6   5   4   4   6   5   5   5   5   4   3   2   2   2   1   1   0   7   6   5   4   3   3   1   7   5   5   2   9   9   9   8   7   6   5   4   3   3  10   9   9   7   7   7   7   6   6   6   5   5   5   4  
 4   5   5   6   9   2   3   3   3   4   5   5   1   2   2   2   2   3   4   5   5   5   6   6   7   0   1   2   3   4   4   6   2   4   4   7   2   2   2   3   4   5   6   7   8   8   3   4   4   6   6   6   6   7   7   7   8   8   8   9  
 3   4   4   5   8   3   2   2   2   3   4   4   2   1   1   1   1   2   3   4   4   4   5   5   6   1   0   1   2   3   3   5   1   3   3   6   3   3   3   2   3   4   5   6   7   7   4   3   3   5   5   5   5   6   6   6   7   7   7   8  
 4   3   3   4   7   4   3   3   3   2   3   3   3   2   2   2   2   1   2   3   3   3   4   4   5   2   1   0   1   2   2   4   2   2   2   5   4   4   4   3   2   3   4   5   6   6   5   4   4   4   4   4   4   5   5   5   6   6   6   7  
 5   4   4   3   6   5   4   4   4   3   2   2   4   3   3   3   3   2   1   2   2   2   3   3   4   3   2   1   0   1   1   3   3   1   1   4   5   5   5   4   3   2   3   4   5   5   6   5   5   3   3   3   3   4   4   4   5   5   5   6  
 6   5   5   4   5   6   5   5   5   4   3   3   5   4   4   4   4   3   2   1   1   1   2   2   3   4   3   2   1   0   0   2   4   2   2   3   6   6   6   5   4   3   2   3   4   4   7   6   6   4   4   4   4   3   3   3   4   4   4   5  
 6   5   5   4   5   6   5   5   5   4   3   3   5   4   4   4   4   3   2   1   1   1   2   2   3   4   3   2   1   0   0   2   4   2   2   3   6   6   6   5   4   3   2   3   4   4   7   6   6   4   4   4   4   3   3   3   4   4   4   5  
 8   7   7   6   3   8   7   7   7   6   5   5   7   6   6   6   6   5   4   3   3   3   2   2   1   6   5   4   3   2   2   0   6   4   4   1   8   8   8   7   6   5   4   3   2   2   9   8   8   6   6   6   6   5   5   5   4   4   4   3  
 4   5   5   6   9   4   3   3   3   4   5   5   3   2   2   2   2   3   4   5   5   5   6   6   7   2   1   2   3   4   4   6   0   2   2   5   2   2   2   1   2   3   4   5   6   6   3   2   2   4   4   4   4   5   5   5   6   6   6   7  
 6   5   5   4   7   6   5   5   5   4   3   3   5   4   4   4   4   3   2   3   3   3   4   4   5   4   3   2   1   2   2   4   2   0   0   3   4   4   4   3   2   1   2   3   4   4   5   4   4   2   2   2   2   3   3   3   4   4   4   5  
 6   5   5   4   7   6   5   5   5   4   3   3   5   4   4   4   4   3   2   3   3   3   4   4   5   4   3   2   1   2   2   4   2   0   0   3   4   4   4   3   2   1   2   3   4   4   5   4   4   2   2   2   2   3   3   3   4   4   4   5  
 9   8   8   7   4   9   8   8   8   7   6   6   8   7   7   7   7   6   5   4   4   4   3   3   2   7   6   5   4   3   3   1   5   3   3   0   7   7   7   6   5   4   3   2   1   1   8   7   7   5   5   5   5   4   4   4   3   3   3   2  
 6   7   7   8  11   4   5   5   5   6   7   7   3   4   4   4   4   5   6   7   7   7   8   8   9   2   3   4   5   6   6   8   2   4   4   7   0   0   0   1   2   3   4   5   6   6   1   2   2   4   4   4   4   5   5   5   6   6   6   7  
 6   7   7   8  11   4   5   5   5   6   7   7   3   4   4   4   4   5   6   7   7   7   8   8   9   2   3   4   5   6   6   8   2   4   4   7   0   0   0   1   2   3   4   5   6   6   1   2   2   4   4   4   4   5   5   5   6   6   6   7  
 6   7   7   8  11   4   5   5   5   6   7   7   3   4   4   4   4   5   6   7   7   7   8   8   9   2   3   4   5   6   6   8   2   4   4   7   0   0   0   1   2   3   4   5   6   6   1   2   2   4   4   4   4   5   5   5   6   6   6   7  
 5   6   6   7  10   5   4   4   4   5   6   6   4   3   3   3   3   4   5   6   6   6   7   7   8   3   2   3   4   5   5   7   1   3   3   6   1   1   1   0   1   2   3   4   5   5   2   1   1   3   3   3   3   4   4   4   5   5   5   6  
 6   5   5   6   9   6   5   5   5   4   5   5   5   4   4   4   4   3   4   5   5   5   6   6   7   4   3   2   3   4   4   6   2   2   2   5   2   2   2   1   0   1   2   3   4   4   3   2   2   2   2   2   2   3   3   3   4   4   4   5  
 7   6   6   5   8   7   6   6   6   5   4   4   6   5   5   5   5   4   3   4   4   4   5   5   6   5   4   3   2   3   3   5   3   1   1   4   3   3   3   2   1   0   1   2   3   3   4   3   3   1   1   1   1   2   2   2   3   3   3   4  
 8   7   7   6   7   8   7   7   7   6   5   5   7   6   6   6   6   5   4   3   3   3   4   4   5   6   5   4   3   2   2   4   4   2   2   3   4   4   4   3   2   1   0   1   2   2   5   4   4   2   2   2   2   1   1   1   2   2   2   3  
 9   8   8   7   6   9   8   8   8   7   6   6   8   7   7   7   7   6   5   4   4   4   3   3   4   7   6   5   4   3   3   3   5   3   3   2   5   5   5   4   3   2   1   0   1   1   6   5   5   3   3   3   3   2   2   2   1   1   1   2  
10   9   9   8   5  10   9   9   9   8   7   7   9   8   8   8   8   7   6   5   5   5   4   4   3   8   7   6   5   4   4   2   6   4   4   1   6   6   6   5   4   3   2   1   0   0   7   6   6   4   4   4   4   3   3   3   2   2   2   1  
10   9   9   8   5  10   9   9   9   8   7   7   9   8   8   8   8   7   6   5   5   5   4   4   3   8   7   6   5   4   4   2   6   4   4   1   6   6   6   5   4   3   2   1   0   0   7   6   6   4   4   4   4   3   3   3   2   2   2   1  
 7   8   8   9  12   5   6   6   6   7   8   8   4   5   5   5   5   6   7   8   8   8   9   9  10   3   4   5   6   7   7   9   3   5   5   8   1   1   1   2   3   4   5   6   7   7   0   1   1   3   3   3   3   4   4   4   5   5   5   6  
 6   7   7   8  11   6   5   5   5   6   7   7   5   4   4   4   4   5   6   7   7   7   8   8   9   4   3   4   5   6   6   8   2   4   4   7   2   2   2   1   2   3   4   5   6   6   1   0   0   2   2   2   2   3   3   3   4   4   4   5  
 6   7   7   8  11   6   5   5   5   6   7   7   5   4   4   4   4   5   6   7   7   7   8   8   9   4   3   4   5   6   6   8   2   4   4   7   2   2   2   1   2   3   4   5   6   6   1   0   0   2   2   2   2   3   3   3   4   4   4   5  
 8   7   7   6   9   8   7   7   7   6   5   5   7   6   6   6   6   5   4   5   5   5   6   6   7   6   5   4   3   4   4   6   4   2   2   5   4   4   4   3   2   1   2   3   4   4   3   2   2   0   0   0   0   1   1   1   2   2   2   3  
 8   7   7   6   9   8   7   7   7   6   5   5   7   6   6   6   6   5   4   5   5   5   6   6   7   6   5   4   3   4   4   6   4   2   2   5   4   4   4   3   2   1   2   3   4   4   3   2   2   0   0   0   0   1   1   1   2   2   2   3  
 8   7   7   6   9   8   7   7   7   6   5   5   7   6   6   6   6   5   4   5   5   5   6   6   7   6   5   4   3   4   4   6   4   2   2   5   4   4   4   3   2   1   2   3   4   4   3   2   2   0   0   0   0   1   1   1   2   2   2   3  
 8   7   7   6   9   8   7   7   7   6   5   5   7   6   6   6   6   5   4   5   5   5   6   6   7   6   5   4   3   4   4   6   4   2   2   5   4   4   4   3   2   1   2   3   4   4   3   2   2   0   0   0   0   1   1   1   2   2   2   3  
 9   8   8   7   8   9   8   8   8   7   6   6   8   7   7   7   7   6   5   4   4   4   5   5   6   7   6   5   4   3   3   5   5   3   3   4   5   5   5   4   3   2   1   2   3   3   4   3   3   1   1   1   1   0   0   0   1   1   1   2  
 9   8   8   7   8   9   8   8   8   7   6   6   8   7   7   7   7   6   5   4   4   4   5   5   6   7   6   5   4   3   3   5   5   3   3   4   5   5   5   4   3   2   1   2   3   3   4   3   3   1   1   1   1   0   0   0   1   1   1   2  
 9   8   8   7   8   9   8   8   8   7   6   6   8   7   7   7   7   6   5   4   4   4   5   5   6   7   6   5   4   3   3   5   5   3   3   4   5   5   5   4   3   2   1   2   3   3   4   3   3   1   1   1   1   0   0   0   1   1   1   2  
10   9   9   8   7  10   9   9   9   8   7   7   9   8   8   8   8   7   6   5   5   5   4   4   5   8   7   6   5   4   4   4   6   4   4   3   6   6   6   5   4   3   2   1   2   2   5   4   4   2   2   2   2   1   1   1   0   0   0   1  
10   9   9   8   7  10   9   9   9   8   7   7   9   8   8   8   8   7   6   5   5   5   4   4   5   8   7   6   5   4   4   4   6   4   4   3   6   6   6   5   4   3   2   1   2   2   5   4   4   2   2   2   2   1   1   1   0   0   0   1  
10   9   9   8   7  10   9   9   9   8   7   7   9   8   8   8   8   7   6   5   5   5   4   4   5   8   7   6   5   4   4   4   6   4   4   3   6   6   6   5   4   3   2   1   2   2   5   4   4   2   2   2   2   1   1   1   0   0   0   1  
11  10  10   9   6  11  10  10  10   9   8   8  10   9   9   9   9   8   7   6   6   6   5   5   4   9   8   7   6   5   5   3   7   5   5   2   7   7   7   6   5   4   3   2   1   1   6   5   5   3   3   3   3   2   2   2   1   1   1   0  

 0  35  44  41  33  40  35  46  35  37  37  30  44  44  26  30  33  35  35  40  35  35  33  40  35  35  37  35  33  35  35  35  44  26  37  33  35  35  35  35  26  35  35  44  35  35  35  26  44  31  35  33  37  35  35  49  33  26  35  26  
 0   0  43  39  35  51  32  37  38  32  28  44  36  35  45  26  34  21  35  26  45  39  33  26  42  37  29  35  42  44  34  35  35  33  20  27  29  20  43  42  48  36  28  33  28  32  30  44  26  33  35  32  35  54  28  40  38  35  35  45  
 0   0   0  28  36  36  28  26  31  31  42  35  34  26  44  34  39  41  35  29  36  43  35  41  34  41  31  35  43  17  42  34  32  37  41  34  41  43  34  40  38  49  35  26  37  44  36  45  31  45  27  21  35  41  27  19  41  44  22  42  
 0   0   0   0  37  43  33  27  31  36  35  30  29  27  46  27  35  41  35  40  35  43  39  41  35  38  32  32  29  37  23  31  23  50  36  38  40  30  35  35  36  34  36  24  27  34  41  44  23  50  43  40  33  38  42  25  29  47  35  36  
 0   0   0   0   0  42  35  52  44  38  27  20  35  33  28  37  40  37  43  35  35  34  41  29  34  42  38  45  18  36  35  43  35  50  37  32  45  35  44  36  35  41  30  35  26  42  34  32  33  25  35  35  29  36  42  26  49  35  27  35  
 0   0   0   0   0   0  36  28  32  32  35  47  31  35  34  52  38  43  35  30  43  27  32  30  28  28  41  47  35  35  39  31  38  35  38  43  35  56  27  28  26  34  49  35  42  28  27  35  47  34  35  35  35  27  35  38  28  32  35  28  
 0   0   0   0   0   0   0  37  35  29  37  35  36  35  37  34  37  35  35  29  36  38  33  41  35  43  30  35  35  35  34  35  41  33  35  35  35  35  35  41  33  42  35  33  35  41  30  35  40  33  35  35  35  37  35  34  35  35  29  28  
 0   0   0   0   0   0   0   0  36  33  31  42  26  25  49  35  36  35  35  35  35  33  38  34  35  25  34  27  44  35  36  29  26  38  33  36  36  35  35  35  46  36  41  28  35  29  36  44  26  53  35  36  33  32  29  33  30  44  35  44  
 0   0   0   0   0   0   0   0   0  28  36  43  32  43  35  31  27  41  27  28  42  42  25  44  34  29  35  38  50  31  37  36  38  21  44  35  32  32  26  34  29  33  36  35  44  31  41  36  38  40  35  30  43  35  34  29  31  32  43  38  
 0   0   0   0   0   0   0   0   0   0  42  44  32  35  44  38  38  44  35  29  35  36  34  50  34  41  37  38  37  37  38  37  44  27  36  36  35  32  34  40  26  32  26  35  36  38  29  36  44  33  35  37  33  34  35  35  50  23  29  32  
 0   0   0   0   0   0   0   0   0   0   0  27  28  40  33  30  43  37  43  19  51  33  47  20  33  26  35  37  36  35  35  35  35  38  24  35  45  35  43  35  55  41  46  37  34  35  35  42  33  42  35  30  25  35  35  33  47  35  34  35  
 0   0   0   0   0   0   0   0   0   0   0   0  35  35  28  30  43  35  52  49  26  35  43  41  35  33  35  35  20  35  35  42  35  34  44  35  43  35  43  44  26  43  37  35  36  42  42  26  26  33  44  44  36  26  33  33  50  35  27  35  
 0   0   0   0   0   0   0   0   0   0   0   0   0  26  44  39  38  35  35  35  34  34  32  35  35  35  34  38  35  35  39  38  29  44  38  35  35  32  35  35  44  27  35  26  42  35  34  44  30  41  35  35  35  28  35  27  35  41  42  45  
 0   0   0   0   0   0   0   0   0   0   0   0   0   0  34  44  26  37  35  42  28  35  34  36  23  41  38  47  28  45  36  36  26  61  35  32  38  35  35  25  54  27  36  26  45  26  35  42  24  35  35  36  35  34  36  14  37  54  35  44  
 0   0   0   0   0   0   0   0   0   0   0   0   0   0   0  43  23  34  35  35  35  33  37  26  25  40  23  45  28  45  35  45  44  47  35  46  35  43  27  25  38  44  28  46  45  32  42  26  52  21  35  35  35  25  42  24  33  45  35  18  
 0   0   0   0   0   0   0   0   0   0   0   0   0   0   0   0  32  25  35  33  43  36  38  38  37  28  34  30  42  35  31  32  32  28  32  29  33  30  43  35  35  45  33  35  35  35  36  37  25  52  35  33  35  43  35  41  33  38  35  42  
 0   0   0   0   0   0   0   0   0   0   0   0   0   0   0   0   0  35  27  40  35  32  31  49  26  34  35  42  41  49  31  32  32  45  34  35  26  38  28  26  47  26  36  37  52  16  35  34  32  39  35  39  45  35  34  25  27  55  43  38  
 0   0   0   0   0   0   0   0   0   0   0   0   0   0   0   0   0   0  35  35  35  29  35  24  37  35  24  33  35  41  35  35  35  44  29  29  27  27  43  35  41  46  33  35  35  35  29  37  29  37  35  39  35  43  35  43  24  44  35  43  
 0   0   0   0   0   0   0   0   0   0   0   0   0   0   0   0   0   0   0  35  35  35  27  43  35  44  35  35  43  35  35  35  35  36  35  35  27  35  27  26  44  27  35  35  34  35  35  35  44  35  26  35  34  35  44  35  27  35  43  35  
 0   0   0   0   0   0   0   0   0   0   0   0   0   0   0   0   0   0   0   0  51  35  35  22  35  34  29  35  42  35  35  35  41  28  26  35  35  35  35  41  44  48  35  35  35  46  29  44  41  37  35  21  35  44  35  30  35  35  29  29  
 0   0   0   0   0   0   0   0   0   0   0   0   0   0   0   0   0   0   0   0   0  34  35  44  35  42  34  26  28  35  36  35  35  42  44  35  35  26  35  35  35  27  35  35  35  35  34  26  36  28  35  44  35  26  35  36  35  35  35  36  
 0   0   0   0   0   0   0   0   0   0   0   0   0   0   0   0   0   0   0   0   0   0  37  35  29  33  40  35  28  42  36  36  35  36  29  36  29  42  36  29  43  34  42  37  41  35  28  34  36  36  35  41  35  34  42  42  34  35  35  36  
 0   0   0   0   0   0   0   0   0   0   0   0   0   0   0   0   0   0   0   0   0   0   0  42  35  36  38  38  41  35  39  39  38  25  40  32  28  32  27  35  33  28  34  33  43  36  35  35  38  30  35  32  45  36  36  35  25  32  43  35  
 0   0   0   0   0   0   0   0   0   0   0   0   0   0   0   0   0   0   0   0   0   0   0   0  37  28  31  33  27  35  36  36  29  52  26  36  42  35  43  29  44  49  32  35  27  35  41  46  31  32  35  18  27  43  36  32  32  44  33  41  
 0   0   0   0   0   0   0   0   0   0   0   0   0   0   0   0   0   0   0   0   0   0   0   0   0  35  45  47  28  44  35  34  35  46  35  32  37  42  34  17  45  33  44  35  53  25  35  34  33  34  35  37  35  34  42  23  38  45  35  35  
 0   0   0   0   0   0   0   0   0   0   0   0   0   0   0   0   0   0   0   0   0   0   0   0   0   0  42  35  49  35  36  29  29  21  35  34  36  35  35  38  28  37  41  37  44  23  34  35  20  51  44  34  44  32  20  42  28  35  41  41  
 0   0   0   0   0   0   0   0   0   0   0   0   0   0   0   0   0   0   0   0   0   0   0   0   0   0   0  33  44  36  35  38  41  43  33  44  32  28  36  49  35  50  27  35  27  40  28  36  44  36  35  36  33  37  27  35  25  44  29  30  
 0   0   0   0   0   0   0   0   0   0   0   0   0   0   0   0   0   0   0   0   0   0   0   0   0   0   0   0  35  25  32  32  32  17  32  37  33  29  35  45  34  37  33  35  25  45  43  37  34  40  35  33  35  35  35  47  33  28  35  35  
 0   0   0   0   0   0   0   0   0   0   0   0   0   0   0   0   0   0   0   0   0   0   0   0   0   0   0   0   0  43  36  42  35  58  37  24  43  43  52  28  35  36  35  35  26  42  42  35  35  21  43  41  29  35  57  28  40  35  27  27  
 0   0   0   0   0   0   0   0   0   0   0   0   0   0   0   0   0   0   0   0   0   0   0   0   0   0   0   0   0   0  43  34  35  18  41  34  41  43  34  44  19  35  35  35  34  48  41  36  35  36  27  21  35  34  27  39  41  25  35  40  
 0   0   0   0   0   0   0   0   0   0   0   0   0   0   0   0   0   0   0   0   0   0   0   0   0   0   0   0   0   0   0  31  32  43  32  45  34  21  26  35  35  35  36  35  27  34  36  35  31  38  43  44  35  36  42  34  27  38  35  26  
 0   0   0   0   0   0   0   0   0   0   0   0   0   0   0   0   0   0   0   0   0   0   0   0   0   0   0   0   0   0   0   0  32  36  32  32  34  38  34  34  35  34  43  35  36  27  28  36  32  46  35  36  35  35  27  45  29  38  35  35  
 0   0   0   0   0   0   0   0   0   0   0   0   0   0   0   0   0   0   0   0   0   0   0   0   0   0   0   0   0   0   0   0   0  44  32  35  35  38  35  29  44  29  35  26  35  29  41  44  17  47  35  35  35  35  35  26  35  47  41  50  
 0   0   0   0   0   0   0   0   0   0   0   0   0   0   0   0   0   0   0   0   0   0   0   0   0   0   0   0   0   0   0   0   0   0  35  36  27  43  28  55   5  25  35  42  49  45  43  25  35  30  36  27  52  38  18  54  43   0  43  34  
 0   0   0   0   0   0   0   0   0   0   0   0   0   0   0   0   0   0   0   0   0   0   0   0   0   0   0   0   0   0   0   0   0   0   0  37  29  38  35  35  50  35  35  35  35  35  29  44  32  38  35  34  33  44  35  41  37  38  35  35  
 0   0   0   0   0   0   0   0   0   0   0   0   0   0   0   0   0   0   0   0   0   0   0   0   0   0   0   0   0   0   0   0   0   0   0   0  38  36  51  34  35  34  36  35  36  36  35  34  25  34  35  34  37  41  36  36  36  35  35  43  
 0   0   0   0   0   0   0   0   0   0   0   0   0   0   0   0   0   0   0   0   0   0   0   0   0   0   0   0   0   0   0   0   0   0   0   0   0  35  27  35  41  28  34  35  43  34  29  37  37  37  35  40  43  36  34  43  25  35  43  35  
 0   0   0   0   0   0   0   0   0   0   0   0   0   0   0   0   0   0   0   0   0   0   0   0   0   0   0   0   0   0   0   0   0   0   0   0   0   0  34  42  44  35  28  35  20  35  35  35  30  32  43  43  35  43  36  35  27  32  35  35  
 0   0   0   0   0   0   0   0   0   0   0   0   0   0   0   0   0   0   0   0   0   0   0   0   0   0   0   0   0   0   0   0   0   0   0   0   0   0   0  34  35  27  35  35  44  35  35  36  43  36  35  35  43  26  35  35  28  35  43  27  
 0   0   0   0   0   0   0   0   0   0   0   0   0   0   0   0   0   0   0   0   0   0   0   0   0   0   0   0   0   0   0   0   0   0   0   0   0   0   0   0  54  29  42  35  44  19  41  36  38  36  26  35  26  34  51  25  36  45  41  41  
 0   0   0   0   0   0   0   0   0   0   0   0   0   0   0   0   0   0   0   0   0   0   0   0   0   0   0   0   0   0   0   0   0   0   0   0   0   0   0   0   0  35  26  42  34  45  41  17  35  24  44  38  44  28  26  48  35  16  35  26  
 0   0   0   0   0   0   0   0   0   0   0   0   0   0   0   0   0   0   0   0   0   0   0   0   0   0   0   0   0   0   0   0   0   0   0   0   0   0   0   0   0   0  38  35  50  28  40  33  28  26  35  38  43  29  34  34  38  26  56  42  
 0   0   0   0   0   0   0   0   0   0   0   0   0   0   0   0   0   0   0   0   0   0   0   0   0   0   0   0   0   0   0   0   0   0   0   0   0   0   0   0   0   0   0  35  28  43  42  37  37  30  35  32  35  34  36  30  40  35  35  35  
 0   0   0   0   0   0   0   0   0   0   0   0   0   0   0   0   0   0   0   0   0   0   0   0   0   0   0   0   0   0   0   0   0   0   0   0   0   0   0   0   0   0   0   0  35  35  35  44  26  42  35  35  35  37  35  26  35  44  35  44  
 0   0   0   0   0   0   0   0   0   0   0   0   0   0   0   0   0   0   0   0   0   0   0   0   0   0   0   0   0   0   0   0   0   0   0   0   0   0   0   0   0   0   0   0   0  45  35  34  44  34  34  43  18  43  45  45  34  25  20  27  
 0   0   0   0   0   0   0   0   0   0   0   0   0   0   0   0   0   0   0   0   0   0   0   0   0   0   0   0   0   0   0   0   0   0   0   0   0   0   0   0   0   0   0   0   0   0  34  35  29  42  35  41  35  36  27  32  31  45  41  44  
 0   0   0   0   0   0   0   0   0   0   0   0   0   0   0   0   0   0   0   0   0   0   0   0   0   0   0   0   0   0   0   0   0   0   0   0   0   0   0   0   0   0   0   0   0   0   0  35  42  42  35  41  35  35  28  49  28  35  29  30  
 0   0   0   0   0   0   0   0   0   0   0   0   0   0   0   0   0   0   0   0   0   0   0   0   0   0   0   0   0   0   0   0   0   0   0   0   0   0   0   0   0   0   0   0   0   0   0   0  42  23  35  46  35  27  35  42  36  26  35  26  
 0   0   0   0   0   0   0   0   0   0   0   0   0   0   0   0   0   0   0   0   0   0   0   0   0   0   0   0   0   0   0   0   0   0   0   0   0   0   0   0   0   0   0   0   0   0   0   0   0  45  44  37  44  43  26  23  37  47  41  57  
 0   0   0   0   0   0   0   0   0   0   0   0   0   0   0   0   0   0   0   0   0   0   0   0   0   0   0   0   0   0   0   0   0   0   0   0   0   0   0   0   0   0   0   0   0   0   0   0   0   0  35  37  35  38  42  30  43  23  35  26  
 0   0   0   0   0   0   0   0   0   0   0   0   0   0   0   0   0   0   0   0   0   0   0   0   0   0   0   0   0   0   0   0   0   0   0   0   0   0   0   0   0   0   0   0   0   0   0   0   0   0   0  27  26  35  36  35  43  35  35  43  
 0   0   0   0   0   0   0   0   0   0   0   0   0   0   0   0   0   0   0   0   0   0   0   0   0   0   0   0   0   0   0   0   0   0   0   0   0   0   0   0   0   0   0   0   0   0   0   0   0   0   0   0  37  43  28  31  39  35  35  43  
 0   0   0   0   0   0   0   0   0   0   0   0   0   0   0   0   0   0   0   0   0   0   0   0   0   0   0   0   0   0   0   0   0   0   0   0   0   0   0   0   0   0   0   0   0   0   0   0   0   0   0   0   0  35  44  35  45  35  27  35  
 0   0   0   0   0   0   0   0   0   0   0   0   0   0   0   0   0   0   0   0   0   0   0   0   0   0   0   0   0   0   0   0   0   0   0   0   0   0   0   0   0   0   0   0   0   0   0   0   0   0   0   0   0   0  36  35  36  35  42  27  
 0   0   0   0   0   0   0   0   0   0   0   0   0   0   0   0   0   0   0   0   0   0   0   0   0   0   0   0   0   0   0   0   0   0   0   0   0   0   0   0   0   0   0   0   0   0   0   0   0   0   0   0   0   0   0  42  36  35  35  43  
 0   0   0   0   0   0   0   0   0   0   0   0   0   0   0   0   0   0   0   0   0   0   0   0   0   0   0   0   0   0   0   0   0   0   0   0   0   0   0   0   0   0   0   0   0   0   0   0   0   0   0   0   0   0   0   0  44  54  35  43  
 0   0   0   0   0   0   0   0   0   0   0   0   0   0   0   0   0   0   0   0   0   0   0   0   0   0   0   0   0   0   0   0   0   0   0   0   0   0   0   0   0   0   0   0   0   0   0   0   0   0   0   0   0   0   0   0   0  44  43  24  
 0   0   0   0   0   0   0   0   0   0   0   0   0   0   0   0   0   0   0   0   0   0   0   0   0   0   0   0   0   0   0   0   0   0   0   0   0   0   0   0   0   0   0   0   0   0   0   0   0   0   0   0   0   0   0   0   0   0  35  26  
 0   0   0   0   0   0   0   0   0   0   0   0   0   0   0   0   0   0   0   0   0   0   0   0   0   0   0   0   0   0   0   0   0   0   0   0   0   0   0   0   0   0   0   0   0   0   0   0   0   0   0   0   0   0   0   0   0   0   0  29  
 0   0   0   0   0   0   0   0   0   0   0   0   0   0   0   0   0   0   0   0   0   0   0   0   0   0   0   0   0   0   0   0   0   0   0   0   0   0   0   0   0   0   0   0   0   0   0   0   0   0   0   0   0   0   0   0   0   0   0   0  
